80 8
46 34
15 9
7 75
54 70
90 81
62 81
77 26
42 14
37 48
17 42
54 30
90 91
20 50
73 79
55 61
74 24
51 17
43 29
52 51
93 65
72 42
31 31
84 7
12 79
45 32
32 5
5 31
98 4
3 49
16 29
1 39
25 98
7 90
18 30
32 66
69 3
32 64
18 73
53 17
44 78
78 20
53 81
56 88
12 98
99 40
10 51
60 42
23 98
86 10
50 14
17 2
47 68
31 15
99 26
22 93
25 4
44 73
49 16
5 14
84 36
56 38
33 11
3 96
77 58
44 70
26 9
36 96
58 18
54 99
9 9
2 68
60 38
87 59
81 34
98 74
12 30
25 8
16 71
5 79
96 88
633 675
472 496
415 444
458 475
520 539
513 548
393 414
503 532
